(set-info :original "03-prusti/prusti-3-pass-paper_examples-points-compress.bc")
(set-info :authors "SeaHorn v.10.0.0-rc0")
(declare-rel verifier.error (Bool Bool Bool ))
(declare-rel main@entry (Int ))
(declare-rel main@entry.split ())
(declare-var main@%sm2_0 (Array Int Int) )
(declare-var main@%sm3_0 (Array Int Int) )
(declare-var main@%sm4_0 (Array Int Int) )
(declare-var main@%sm5_0 (Array Int Int) )
(declare-var main@%_0_0 Int )
(declare-var main@%_1_0 Int )
(declare-var main@%malloc14.i_0 Int )
(declare-var main@%_2_0 Int )
(declare-var main@%_3_0 Int )
(declare-var main@%_4_0 Int )
(declare-var main@%_5_0 Int )
(declare-var @nd_0 Int )
(declare-var main@%.pmcpy.elt.i_0 Int )
(declare-var main@%.pmcpy.unpack.i_0 Int )
(declare-var main@%_6_0 Int )
(declare-var main@%_7_0 Int )
(declare-var main@%.pmcpy2.elt.i_0 Int )
(declare-var main@%.pmcpy2.unpack.i_0 Int )
(declare-var main@%.pmcpy2.elt10.i_0 Int )
(declare-var main@%.pmcpy2.unpack11.i_0 Int )
(declare-var main@%.repack.i_0 Int )
(declare-var main@%sm_0 (Array Int Int) )
(declare-var main@%.repack13.i_0 Int )
(declare-var main@%sm1_0 (Array Int Int) )
(declare-var main@%_8_0 Int )
(declare-var main@%_9_0 Int )
(declare-var main@%_10_0 Int )
(declare-var main@%_11_0 Int )
(declare-var main@%_12_0 Int )
(declare-var main@%_13_0 Int )
(declare-var main@%_14_0 Bool )
(declare-var main@entry_0 Bool )
(declare-var main@entry.split_0 Bool )
(rule (verifier.error false false false))
(rule (verifier.error false true true))
(rule (verifier.error true false true))
(rule (verifier.error true true true))
(rule (main@entry @nd_0))
(rule (let ((a!1 (= main@%.pmcpy2.elt.i_0 (+ (+ main@%_1_0 (* 0 8)) 0)))
      (a!2 (= main@%.pmcpy2.elt10.i_0 (+ (+ main@%_1_0 (* 0 8)) 4)))
      (a!3 (= main@%.repack.i_0 (+ (+ main@%malloc14.i_0 (* 0 8)) 0)))
      (a!4 (= main@%.repack13.i_0 (+ (+ main@%malloc14.i_0 (* 0 8)) 4))))
(let ((a!5 (and (main@entry @nd_0)
                true
                (> main@%_0_0 0)
                (> main@%_1_0 0)
                (> main@%malloc14.i_0 0)
                (distinct main@%_0_0
                  main@%.pmcpy2.elt.i_0 main@%.pmcpy2.elt10.i_0
                  main@%.repack.i_0 main@%.repack13.i_0) ; added
                (= main@%_2_0 main@%malloc14.i_0)
                (= main@%_3_0 main@%malloc14.i_0)
                (= main@%_4_0 main@%_0_0)
                (= main@%_5_0 @nd_0)
                (= main@%.pmcpy.elt.i_0 (+ main@%_0_0 (* 0 8) 0))
                (or (<= main@%_0_0 0) (> main@%.pmcpy.elt.i_0 0))
                (= main@%.pmcpy.unpack.i_0
                   (select main@%sm3_0 main@%.pmcpy.elt.i_0))
                (= main@%_6_0 main@%_1_0)
                (= main@%_7_0 @nd_0)
                a!1
                (or (<= main@%_1_0 0) (> main@%.pmcpy2.elt.i_0 0))
                (= main@%.pmcpy2.unpack.i_0
                   (select main@%sm4_0 main@%.pmcpy2.elt.i_0))
                a!2
                (or (<= main@%_1_0 0) (> main@%.pmcpy2.elt10.i_0 0))
                (> main@%_1_0 0)
                (= main@%.pmcpy2.unpack11.i_0
                   (select main@%sm4_0 main@%.pmcpy2.elt10.i_0))
                a!3
                (or (<= main@%malloc14.i_0 0) (> main@%.repack.i_0 0))
                (= main@%sm_0
                   (store main@%sm2_0
                          main@%.repack.i_0
                          main@%.pmcpy2.unpack.i_0))
                a!4
                (or (<= main@%malloc14.i_0 0) (> main@%.repack13.i_0 0))
                (> main@%malloc14.i_0 0)
                (= main@%sm1_0
                   (store main@%sm_0
                          main@%.repack13.i_0
                          main@%.pmcpy2.unpack11.i_0))
                (= main@%_8_0 (+ main@%_3_0 1))
                (= main@%_9_0 (+ main@%_8_0 main@%.pmcpy.unpack.i_0))
                (= main@%_10_0 (- main@%_9_0 main@%.pmcpy2.unpack.i_0))
                (= main@%_11_0 main@%_10_0)
                (= main@%_12_0 (+ main@%_11_0 (* 0 8) 0))
                (or (<= main@%_11_0 0) (> main@%_12_0 0))
                (= main@%_13_0 (select main@%sm5_0 main@%_12_0))
                (= main@%_14_0 (< main@%.pmcpy.unpack.i_0 main@%_13_0))
                (not main@%_14_0)
                (=> main@entry.split_0 (and main@entry.split_0 main@entry_0))
                main@entry.split_0)))
  (=> a!5 main@entry.split))))
(query main@entry.split)

